<instance format="XCSP3" type="CSP">
  <variables>
    <var id="x0"> 8 9 12 </var>
    <var id="x1"> 1 6 7 9 </var>
    <var id="x2"> 6 12 </var>
    <var id="x3"> 2 6 9 </var>
    <var id="x4"> 6 7 </var>
    <var id="x5"> 6 8 12 </var>
    <var id="x6"> 1 2 6 7 </var>
    <var id="x7"> 1 3 6 8 </var>
    <var id="x8"> 1 3 5 6 </var>
    <var id="x9"> 5 6 12 </var>
    <var id="x10"> 1 5 8 </var>
    <var id="x11"> 0 5 6 12 </var>
    <var id="x12"> 0 3 6 12 </var>
    <var id="x13"> 0 3 5 6 </var>
    <var id="x14"> 4 6 8 </var>
    <var id="x15"> 6 8 11 13 </var>
    <var id="x16"> 4 6 9 </var>
    <var id="x17"> 6 9 12 13 </var>
    <var id="x18"> 6 12 13 </var>
    <var id="x19"> 4 6 9 11 </var>
    <var id="x20"> 6 11 </var>
    <var id="x21"> 4 6 </var>
    <var id="x22"> 6 </var>
    <var id="x23"> 8 10 14 </var>
    <var id="x24"> 0 4 6 10 11 </var>
    <var id="x25"> 4 6 10 11 </var>
    <var id="x26"> 0 4 6 </var>
    <var id="x27"> 0 4 6 8 </var>
    <var id="x28"> 2 4..6 </var>
    <var id="x29"> 5 7 </var>
    <var id="x30"> 2 5 7 12 </var>
    <var id="x31"> 5..7 12 13 </var>
    <var id="x32"> 2 4..6 </var>
    <var id="x33"> 4..7 13 </var>
    <var id="x34"> 2 4 6 </var>
    <var id="x35"> 3 4 6 7 </var>
    <var id="x36"> 3 6 7 </var>
    <var id="x37"> 0 9 </var>
    <var id="x38"> 7 9 </var>
    <var id="x39"> 2 7 </var>
    <var id="x40"> 2 4 6 9 </var>
    <var id="x41"> 0 3 4 6 </var>
    <var id="x42"> 1 6 7 10 </var>
    <var id="x43"> 1 6 </var>
    <var id="x44"> 10 12 13 </var>
    <var id="x45"> 1 6 7 13 </var>
    <var id="x46"> 1 7 10 12 14 </var>
    <var id="x47"> 6 7 10 12 13 </var>
    <var id="x48"> 6 12 13 </var>
    <var id="x49"> 3 6 7 10 </var>
    <var id="x50"> 3 6 7 13 14 </var>
    <var id="x51"> 3 5 6 </var>
    <var id="x52"> 6 7 13 </var>
    <var id="x53"> 5 7 10 14 </var>
    <var id="x54"> 3 6 10 </var>
    <var id="x55"> 3 5..7 13 </var>
    <var id="x56"> 2 4 5 9 </var>
    <var id="x57"> 0 5 9 10 </var>
    <var id="x58"> 0 4 7 9 </var>
    <var id="x59"> 2 5 7 9 </var>
    <var id="x60"> 5 7 9 10 </var>
    <var id="x61"> 0 5 7 10 </var>
    <var id="x62"> 0 4 </var>
    <var id="x63"> 5 10 </var>
    <var id="x64"> 1 4 6 </var>
    <var id="x65"> 1 5 10 </var>
    <var id="x66"> 1 2 5 10 </var>
    <var id="x67"> 2 4..6 10 </var>
    <var id="x68"> 2..4 6 </var>
    <var id="x69"> 1 2 5 6 10 </var>
    <var id="x70"> 0 5 10 13 </var>
    <var id="x71"> 5 6 13 </var>
    <var id="x72"> 5 10 </var>
    <var id="x73"> 0 3 6 10 11 </var>
    <var id="x74"> 0 3 5 6 13 </var>
    <var id="x75"> 3 6 11 </var>
    <var id="x76"> 0 5 6 10 11 </var>
    <var id="x77"> 1 3 4 8 </var>
    <var id="x78"> 3 8 13 </var>
    <var id="x79"> 0 1 4 13 </var>
    <var id="x80"> 1 5 </var>
    <var id="x81"> 0 3 4 </var>
    <var id="x82"> 4 5 </var>
    <var id="x83"> 0 1 5 </var>
    <var id="x84"> 1 3 6 7 10 </var>
    <var id="x85"> 3 6 7 14 </var>
    <var id="x86"> 1 6 7 9 </var>
    <var id="x87"> 2 6 7 9 </var>
    <var id="x88"> 6 7 10 </var>
    <var id="x89"> 3 6 10 </var>
    <var id="x90"> 2 3 6 9 14 </var>
    <var id="x91"> 1 2 6 7 10 </var>
    <var id="x92"> 7 11 </var>
    <var id="x93"> 5 9 10 12 </var>
    <var id="x94"> 5 7 9 12 </var>
    <var id="x95"> 4 5 7 </var>
    <var id="x96"> 4 9 11 </var>
    <var id="x97"> 4 12 </var>
    <var id="x98"> 5 7 10 11 </var>
    <var id="x99"> 6 7 11 13 </var>
    <var id="x100"> 5 7 </var>
    <var id="x101"> 0 5..7 13 </var>
    <var id="x102"> 5 6 9 11 </var>
    <var id="x103"> 6 9 11 </var>
    <var id="x104"> 0 6 13 </var>
    <var id="x105"> 0 5..7 11 </var>
  </variables>
  <constraints>
    <group>
      <allDifferent> %... </allDifferent>
      <args> x0 x1 x2 x3 x4 x5 x6 </args>
      <args> x7 x8 x9 x10 x11 x12 x13 </args>
      <args> x14 x15 x16 x17 x18 x19 x20 </args>
      <args> x21 x22 x23 x24 x25 x26 x27 </args>
      <args> x28 x29 x30 x31 x32 x33 x34 </args>
      <args> x35 x36 x37 x38 x39 x40 x41 </args>
      <args> x42 x43 x44 x45 x46 x47 x48 </args>
      <args> x49 x50 x51 x52 x53 x54 x55 </args>
      <args> x56 x57 x58 x59 x60 x61 x62 </args>
      <args> x63 x64 x65 x66 x67 x68 x69 </args>
      <args> x70 x71 x72 x73 x74 x75 x76 </args>
      <args> x77 x78 x79 x80 x81 x82 x83 </args>
      <args> x84 x85 x86 x87 x88 x89 x90 x91 </args>
      <args> x92 x93 x94 x95 x96 x97 x98 </args>
      <args> x99 x100 x101 x102 x103 x104 x105 </args>
      <args> x7 x14 x35 x42 x49 x77 x84 </args>
      <args> x15 x36 x50 x78 x85 x92 x99 </args>
      <args> x8 x16 x21 x28 x43 x51 x56 </args>
      <args> x0 x37 x44 x57 x63 x70 x93 </args>
      <args> x1 x45 x52 x58 x64 x79 x86 </args>
      <args> x9 x17 x22 x59 x71 x87 x94 </args>
      <args> x10 x23 x29 x38 x53 x60 x65 </args>
      <args> x30 x39 x46 x66 x72 x80 x100 </args>
      <args> x11 x18 x31 x47 x61 x88 x101 </args>
      <args> x2 x12 x24 x54 x73 x81 x89 </args>
      <args> x3 x25 x32 x40 x67 x82 x102 </args>
      <args> x4 x13 x26 x33 x55 x74 x95 </args>
      <args> x19 x34 x68 x75 x90 x96 x103 </args>
      <args> x5 x27 x41 x48 x62 x97 x104 </args>
      <args> x6 x20 x69 x76 x83 x91 x98 x105 </args>
    </group>
  </constraints>
</instance>

